Route #1: 19 20 27 31 29 21 17 9
Route #2: 38 2 37 22 32
Route #3: 15 16 24 1 40 34 41 28
Route #4: 25 18 44 10 7 3 5 36
Route #5: 11 8 33 42 35 12 39
Route #6: 23 14 26 13 43 6 45
Route #7: 30 4
cost 995.3563232421875